(set-logic HORN)
(set-info :source |
    Benchmark: C_VC
    Output by Princess (http://www.philipp.ruemmer.org/princess.shtml)
|)
(set-info :status sat)
(declare-fun inv_main10 (Int Int Int Int Int) Bool)
(declare-fun inv_main14 (Int Int Int Int Int) Bool)
(declare-fun inv_main15 (Int Int Int Int Int) Bool)
(declare-fun inv_main3 (Int Int Int Int Int) Bool)
(assert (forall ((var0 Int) (var1 Int) (var2 Int) (var3 Int)) (inv_main3 50000001 var3 var2 var1 var0)))
(assert (forall ((var0 Int) (var1 Int) (var2 Int) (var3 Int) (var4 Int) (var5 Int) (var6 Int)) (or (not (and (inv_main14 var4 var3 var2 var1 var0) (not (or (not (and (and (and (and (<= 0 (+ (+ 2 (* (- 1) var5)) (- 1))) (<= 0 (+ (+ 2 (* 1 var5)) (- 1)))) (or (not (<= 0 (+ var5 (- 1)))) (<= 0 (+ var1 (- 1))))) (or (not (<= 0 (+ (* (- 1) var5) (- 1)))) (<= 0 (+ (* (- 1) var1) (- 1))))) (= var1 (+ (* 2 var6) var5)))) (= var5 0))))) (inv_main15 var4 var3 var2 var1 var0))))
(assert (forall ((var0 Int) (var1 Int) (var2 Int) (var3 Int) (var4 Int)) (or (not (and (inv_main10 var4 var3 var2 var1 var0) (not (<= 0 (+ (+ var3 (* (- 1) var2)) (- 1)))))) (inv_main14 var4 var3 var2 var1 var2))))
(assert (forall ((var0 Int) (var1 Int) (var2 Int) (var3 Int) (var4 Int) (var5 Int) (var6 Int)) (or (not (and (inv_main14 var4 var3 var2 var1 var0) (and (and (and (and (and (<= 0 (+ (+ 2 (* (- 1) var5)) (- 1))) (<= 0 (+ (+ 2 (* 1 var5)) (- 1)))) (or (not (<= 0 (+ var5 (- 1)))) (<= 0 (+ var1 (- 1))))) (or (not (<= 0 (+ (* (- 1) var5) (- 1)))) (<= 0 (+ (* (- 1) var1) (- 1))))) (= var1 (+ (* 2 var6) var5))) (= var5 0)))) (inv_main14 var4 var3 var2 (+ var1 (- 4)) (+ var0 (- 4))))))
(assert (forall ((var0 Int) (var1 Int) (var2 Int) (var3 Int) (var4 Int) (var5 Int)) (or (not (and (inv_main3 var5 var4 var3 var2 var1) (<= 0 (+ var5 (* (- 1) var0))))) (inv_main10 var5 var0 0 0 var1))))
(assert (forall ((var0 Int) (var1 Int) (var2 Int) (var3 Int) (var4 Int)) (or (not (and (inv_main10 var4 var3 var2 var1 var0) (<= 0 (+ (+ var3 (* (- 1) var2)) (- 1))))) (inv_main10 var4 var3 (+ var2 4) (+ (+ var2 4) 2) var0))))
(assert (forall ((var0 Int) (var1 Int) (var2 Int) (var3 Int) (var4 Int) (var5 Int) (var6 Int)) (not (and (inv_main15 var4 var3 var2 var1 var0) (not (or (not (and (and (and (and (<= 0 (+ (+ 2 (* (- 1) var5)) (- 1))) (<= 0 (+ (+ 2 (* 1 var5)) (- 1)))) (or (not (<= 0 (+ var5 (- 1)))) (<= 0 (+ var0 (- 1))))) (or (not (<= 0 (+ (* (- 1) var5) (- 1)))) (<= 0 (+ (* (- 1) var0) (- 1))))) (= var0 (+ (* 2 var6) var5)))) (= var5 0)))))))
(check-sat)
